09-routing/solutions/XSH-n20-k4-17.opt.sol
Route #1: 19 8 9 16 11 3
Route #2: 14 5 2 15 4
Route #3: 1 10 6 17
Route #4: 20 12 7 18 13
Cost 605
